\ Generated by MPModelProtoExporter
\   Name             : 
\   Format           : Free
\   Constraints      : 242
\   Variables        : 298
\     Binary         : 0
\     Integer        : 0
\     Continuous     : 298
Minimize
 Obj: +1560 V00FGEN00PP +11560 V00FGEN00PPn2 +998440 V00FGEN00PPp2 +350 V00FGEN01PP +10350 V00FGEN01PPn2 -200000 V00EDEM00PP -200000 V00EDEM03PP -200000 V00EDEM04PP -200000 V00EDEM07PP -200000 V00EDEM09PP -200000 V00EDEM10PP -200000 V00EDEM11PP -200000 V00EDEM12PP -200000 V00EDEM13PP -200000 V00EDEM14PP -200000 V00EDEM15PP -200000 V00EDEM16PP +1560 V00FGEN03PP +11560 V00FGEN03PPn2 +998440 V00FGEN03PPp2 +228 V00FGEN04PP -200000 V00EDEM18PP +363.75 V00FGEN05PP +10363.8 V00FGEN05PPn2 -200000 V00EDEM20PP -200000 V00EDEM21PP 
Subject to
 V00FGEN00PPn2: +1 V00FGEN00PP +1 V00FGEN00PPn2  >= 0
 V00FGEN00PPp2: -1 V00FGEN00PP +1 V00FGEN00PPp2  >= -1.05
 V00FGEN01PPn2: +1 V00FGEN01PP +1 V00FGEN01PPn2  >= 0
 V00FGEN03PPn2: +1 V00FGEN03PP +1 V00FGEN03PPn2  >= 0
 V00FGEN03PPp2: -1 V00FGEN03PP +1 V00FGEN03PPp2  >= -1.05
 V00FGEN05PPn2: +1 V00FGEN05PP +1 V00FGEN05PPn2  >= 0
 E00ENO00EVm: -1 V00ENO00Vr +1 V00ENO00Vm  = 0
 E00ENO00BIr: +0.025 V00ENO00Vi +1 V00FGEN00Ir -1 V00LI00Ir -1 V00LI01Ir  = 0
 E00ENO00BIi: -0.025 V00ENO00Vr +1 V00FGEN00Ii -1 V00LI00Ii -1 V00LI01Ii  = 0.02375
 E00ENO01EVm: -1 V00ENO01Vr +1 V00ENO01Vm  = -0.95
 E00ENO01BIr: +0.045 V00ENO01Vi +1 V00FGEN01Ir +1 V00LI00Ir -1 V00LI02Ir -1 V00LI04Ir -1 V00LI05Ir  = 0
 E00ENO01BIi: -0.045 V00ENO01Vr +1 V00FGEN01Ii +1 V00LI00Ii -1 V00LI02Ii -1 V00LI04Ii -1 V00LI05Ii  = 0
 E00ENO02EVm: -1 V00ENO02Vr +1 V00ENO02Vm  = -0.95
 E00ENO02BIr: +0.01 V00ENO02Vi -1 V00EDEM00Ir +1 V00LI01Ir -1 V00LI03Ir  = 0
 E00ENO02BIi: -0.01 V00ENO02Vr -1 V00EDEM00Ii +1 V00LI01Ii -1 V00LI03Ii  = 0
 E00ENO03EVm: -1 V00ENO03Vr +1 V00ENO03Vm  = -0.95
 E00ENO03BIr: +0.01 V00ENO03Vi -1 V00EDEM01Ir +1 V00LI02Ir +1 V00LI03Ir -1 V00LI06Ir -1 V00LI14Ir  = 0
 E00ENO03BIi: -0.01 V00ENO03Vr -1 V00EDEM01Ii +1 V00LI02Ii +1 V00LI03Ii -1 V00LI06Ii -1 V00LI14Ii  = 0
 E00ENO04EVm: -1 V00ENO04Vr +1 V00ENO04Vm  = -0.95
 E00ENO04BIr: +0.015 V00ENO04Vi +1 V00SHT00Ir +1 V00LI04Ir -1 V00LI07Ir  = 0
 E00ENO04BIi: -0.015 V00ENO04Vr +1 V00SHT00Ii +1 V00LI04Ii -1 V00LI07Ii  = 0
 E00ENO05EVm: -1 V00ENO05Vr +1 V00ENO05Vm  = -0.95
 E00ENO05BIr: +0.02 V00ENO05Vi -1 V00EDEM02Ir +1 V00LI05Ir +1 V00LI06Ir -1 V00LI08Ir -1 V00LI09Ir -1 V00LI10Ir -1 V00LI11Ir -1 V00LI40Ir  = 0
 E00ENO05BIi: -0.02 V00ENO05Vr -1 V00EDEM02Ii +1 V00LI05Ii +1 V00LI06Ii -1 V00LI08Ii -1 V00LI09Ii -1 V00LI10Ii -1 V00LI11Ii -1 V00LI40Ii  = 0
 E00ENO06EVm: -1 V00ENO06Vr +1 V00ENO06Vm  = -0.95
 E00ENO06BIr: +0.01 V00ENO06Vi -1 V00EDEM03Ir +1 V00LI07Ir +1 V00LI08Ir  = 0
 E00ENO06BIi: -0.01 V00ENO06Vr -1 V00EDEM03Ii +1 V00LI07Ii +1 V00LI08Ii  = 0
 E00ENO07EVm: -1 V00ENO07Vr +1 V00ENO07Vm  = -0.95
 E00ENO07BIr: +0.01 V00ENO07Vi -1 V00EDEM04Ir +1 V00LI09Ir -1 V00LI39Ir  = 0
 E00ENO07BIi: -0.01 V00ENO07Vr -1 V00EDEM04Ii +1 V00LI09Ii -1 V00LI39Ii  = 0
 E00ENO08EVm: -1 V00ENO08Vr +1 V00ENO08Vm  = -0.95
 E00ENO08BIr: -1 V00EDEM05Ir +1 V00LI10Ir -1 V00LI12Ir -1 V00LI13Ir  = 0
 E00ENO08BIi: -1 V00EDEM05Ii +1 V00LI10Ii -1 V00LI12Ii -1 V00LI13Ii  = 0
 E00ENO09EVm: -1 V00ENO09Vr +1 V00ENO09Vm  = -0.95
 E00ENO09BIr: -1 V00EDEM06Ir +1 V00LI11Ir +1 V00LI13Ir -1 V00LI24Ir -1 V00LI25Ir -1 V00LI26Ir -1 V00LI27Ir  = 0
 E00ENO09BIi: -1 V00EDEM06Ii +1 V00LI11Ii +1 V00LI13Ii -1 V00LI24Ii -1 V00LI25Ii -1 V00LI26Ii -1 V00LI27Ii  = 0
 E00ENO10EVm: -1 V00ENO10Vr +1 V00ENO10Vm  = -0.95
 E00ENO10BIr: -1 V00EDEM07Ir +1 V00LI12Ir  = 0
 E00ENO10BIi: -1 V00EDEM07Ii +1 V00LI12Ii  = 0
 E00ENO11EVm: -1 V00ENO11Vr +1 V00ENO11Vm  = -0.95
 E00ENO11BIr: -1 V00EDEM08Ir +1 V00LI14Ir -1 V00LI15Ir -1 V00LI16Ir -1 V00LI17Ir -1 V00LI18Ir  = 0
 E00ENO11BIi: -1 V00EDEM08Ii +1 V00LI14Ii -1 V00LI15Ii -1 V00LI16Ii -1 V00LI17Ii -1 V00LI18Ii  = 0
 E00ENO12EVm: -1 V00ENO12Vr +1 V00ENO12Vm  = -0.95
 E00ENO12BIr: +1 V00LI15Ir  = 0
 E00ENO12BIi: +1 V00LI15Ii  = 0
 E00ENO13EVm: -1 V00ENO13Vr +1 V00ENO13Vm  = -0.95
 E00ENO13BIr: -1 V00EDEM09Ir +1 V00LI16Ir -1 V00LI19Ir  = 0
 E00ENO13BIi: -1 V00EDEM09Ii +1 V00LI16Ii -1 V00LI19Ii  = 0
 E00ENO14EVm: -1 V00ENO14Vr +1 V00ENO14Vm  = -0.95
 E00ENO14BIr: -1 V00EDEM10Ir +1 V00LI17Ir +1 V00LI19Ir -1 V00LI21Ir -1 V00LI29Ir  = 0
 E00ENO14BIi: -1 V00EDEM10Ii +1 V00LI17Ii +1 V00LI19Ii -1 V00LI21Ii -1 V00LI29Ii  = 0
 E00ENO15EVm: -1 V00ENO15Vr +1 V00ENO15Vm  = -0.95
 E00ENO15BIr: -1 V00EDEM11Ir +1 V00LI18Ir -1 V00LI20Ir  = 0
 E00ENO15BIi: -1 V00EDEM11Ii +1 V00LI18Ii -1 V00LI20Ii  = 0
 E00ENO16EVm: -1 V00ENO16Vr +1 V00ENO16Vm  = -0.95
 E00ENO16BIr: -1 V00EDEM12Ir +1 V00LI20Ir +1 V00LI25Ir  = 0
 E00ENO16BIi: -1 V00EDEM12Ii +1 V00LI20Ii +1 V00LI25Ii  = 0
 E00ENO17EVm: -1 V00ENO17Vr +1 V00ENO17Vm  = -0.95
 E00ENO17BIr: -1 V00EDEM13Ir +1 V00LI21Ir -1 V00LI22Ir  = 0
 E00ENO17BIi: -1 V00EDEM13Ii +1 V00LI21Ii -1 V00LI22Ii  = 0
 E00ENO18EVm: -1 V00ENO18Vr +1 V00ENO18Vm  = -0.95
 E00ENO18BIr: -1 V00EDEM14Ir +1 V00LI22Ir -1 V00LI23Ir  = 0
 E00ENO18BIi: -1 V00EDEM14Ii +1 V00LI22Ii -1 V00LI23Ii  = 0
 E00ENO19EVm: -1 V00ENO19Vr +1 V00ENO19Vm  = -0.95
 E00ENO19BIr: -1 V00EDEM15Ir +1 V00LI23Ir +1 V00LI24Ir  = 0
 E00ENO19BIi: -1 V00EDEM15Ii +1 V00LI23Ii +1 V00LI24Ii  = 0
 E00ENO20EVm: -1 V00ENO20Vr +1 V00ENO20Vm  = -0.95
 E00ENO20BIr: -1 V00EDEM16Ir +1 V00LI26Ir -1 V00LI28Ir  = 0
 E00ENO20BIi: -1 V00EDEM16Ii +1 V00LI26Ii -1 V00LI28Ii  = 0
 E00ENO21EVm: -1 V00ENO21Vr +1 V00ENO21Vm  = -0.95
 E00ENO21BIr: +1 V00FGEN03Ir +1 V00LI27Ir +1 V00LI28Ir -1 V00LI30Ir  = 0
 E00ENO21BIi: +1 V00FGEN03Ii +1 V00LI27Ii +1 V00LI28Ii -1 V00LI30Ii  = 0
 E00ENO22EVm: -1 V00ENO22Vr +1 V00ENO22Vm  = -0.95
 E00ENO22BIr: +1 V00FGEN04Ir +1 V00LI29Ir -1 V00LI31Ir  = 0
 E00ENO22BIi: +1 V00FGEN04Ii +1 V00LI29Ii -1 V00LI31Ii  = 0
 E00ENO23EVm: -1 V00ENO23Vr +1 V00ENO23Vm  = -0.95
 E00ENO23BIr: +1 V00SHT01Ir +1 V00LI30Ir +1 V00LI31Ir -1 V00LI32Ir  = 0
 E00ENO23BIi: +1 V00SHT01Ii +1 V00LI30Ii +1 V00LI31Ii -1 V00LI32Ii  = 0
 E00ENO24EVm: -1 V00ENO24Vr +1 V00ENO24Vm  = -0.95
 E00ENO24BIr: -1 V00EDEM17Ir +1 V00LI32Ir -1 V00LI33Ir -1 V00LI34Ir  = 0
 E00ENO24BIi: -1 V00EDEM17Ii +1 V00LI32Ii -1 V00LI33Ii -1 V00LI34Ii  = 0
 E00ENO25EVm: -1 V00ENO25Vr +1 V00ENO25Vm  = -0.95
 E00ENO25BIr: -1 V00EDEM18Ir +1 V00LI33Ir  = 0
 E00ENO25BIi: -1 V00EDEM18Ii +1 V00LI33Ii  = 0
 E00ENO26EVm: -1 V00ENO26Vr +1 V00ENO26Vm  = -0.95
 E00ENO26BIr: +1 V00FGEN05Ir +1 V00LI34Ir +1 V00LI35Ir -1 V00LI36Ir -1 V00LI37Ir  = 0
 E00ENO26BIi: +1 V00FGEN05Ii +1 V00LI34Ii +1 V00LI35Ii -1 V00LI36Ii -1 V00LI37Ii  = 0
 E00ENO27EVm: -1 V00ENO27Vr +1 V00ENO27Vm  = -0.95
 E00ENO27BIr: +0.015 V00ENO27Vi -1 V00EDEM19Ir -1 V00LI35Ir +1 V00LI39Ir +1 V00LI40Ir  = 0
 E00ENO27BIi: -0.015 V00ENO27Vr -1 V00EDEM19Ii -1 V00LI35Ii +1 V00LI39Ii +1 V00LI40Ii  = 0
 E00ENO28EVm: -1 V00ENO28Vr +1 V00ENO28Vm  = -0.95
 E00ENO28BIr: -1 V00EDEM20Ir +1 V00LI36Ir -1 V00LI38Ir  = 0
 E00ENO28BIi: -1 V00EDEM20Ii +1 V00LI36Ii -1 V00LI38Ii  = 0
 E00ENO29EVm: -1 V00ENO29Vr +1 V00ENO29Vm  = -0.95
 E00ENO29BIr: -1 V00EDEM21Ir +1 V00LI37Ir +1 V00LI38Ir  = 0
 E00ENO29BIi: -1 V00EDEM21Ii +1 V00LI37Ii +1 V00LI38Ii  = 0
 E00FGEN00EPVI: -1 V00FGEN00Ir +1 V00FGEN00PP  = -0.15
 E00FGEN00EQVI: +1 V00FGEN00Ii +1 V00FGEN00QQ  = 0.030028
 E00FGEN01EPVI: -1 V00FGEN01Ir +1 V00FGEN01PP  = -0.25
 E00FGEN01EQVI: +1 V00FGEN01Ii +1 V00FGEN01QQ  = -0.239646
 E00EDEM00EPVI: -1 V00EDEM00Ir +1 V00EDEM00PP  = -0.05225
 E00EDEM00EQVI: +1 V00EDEM00Ii +1 V00EDEM00QQ  = 0
 E00EDEM01EPVI: -1 V00EDEM01Ir +1 V00EDEM01PP  = 0
 E00EDEM01EQVI: +1 V00EDEM01Ii +1 V00EDEM01QQ  = 0
 E00SHT00EPVI: -1 V00SHT00Ir +1 V00SHT00PP  = 0
 E00SHT00EQVI: +1 V00SHT00Ii +1 V00SHT00QQ  = 0
 E00SHT00EPs: -0.0008 V00ENO04Vi +2 V00SHT00Ir  = 0
 E00SHT00EQs: +0.0008 V00ENO04Vr +2 V00SHT00Ii  = 0
 E00EDEM02EPVI: -1 V00EDEM02Ir +1 V00EDEM02PP  = 0
 E00EDEM02EQVI: +1 V00EDEM02Ii +1 V00EDEM02QQ  = 0
 E00EDEM03EPVI: -1 V00EDEM03Ir +1 V00EDEM03PP  = -0.1254
 E00EDEM03EQVI: +1 V00EDEM03Ii +1 V00EDEM03QQ  = 0
 E00EDEM04EPVI: -1 V00EDEM04Ir +1 V00EDEM04PP  = -0.26125
 E00EDEM04EQVI: +1 V00EDEM04Ii +1 V00EDEM04QQ  = 0
 E00EDEM05EPVI: -1 V00EDEM05Ir +1 V00EDEM05PP  = 0
 E00EDEM05EQVI: +1 V00EDEM05Ii +1 V00EDEM05QQ  = 0
 E00EDEM06EPVI: -1 V00EDEM06Ir +1 V00EDEM06PP  = 0
 E00EDEM06EQVI: +1 V00EDEM06Ii +1 V00EDEM06QQ  = 0
 E00EDEM07EPVI: -1 V00EDEM07Ir +1 V00EDEM07PP  = -0.2508
 E00EDEM07EQVI: +1 V00EDEM07Ii +1 V00EDEM07QQ  = 0
 E00EDEM08EPVI: -1 V00EDEM08Ir +1 V00EDEM08PP  = 0
 E00EDEM08EQVI: +1 V00EDEM08Ii +1 V00EDEM08QQ  = 0
 E00FGEN02EPVI: +1 V00FGEN02Ir  = 0
 E00FGEN02EQVI: +1 V00FGEN02Ii  = 0
 E00EDEM09EPVI: -1 V00EDEM09Ir +1 V00EDEM09PP  = -0.2508
 E00EDEM09EQVI: +1 V00EDEM09Ii +1 V00EDEM09QQ  = 0
 E00EDEM10EPVI: -1 V00EDEM10Ir +1 V00EDEM10PP  = -0.07315
 E00EDEM10EQVI: +1 V00EDEM10Ii +1 V00EDEM10QQ  = 0
 E00EDEM11EPVI: -1 V00EDEM11Ir +1 V00EDEM11PP  = -0.09405
 E00EDEM11EQVI: +1 V00EDEM11Ii +1 V00EDEM11QQ  = 0
 E00EDEM12EPVI: -1 V00EDEM12Ir +1 V00EDEM12PP  = -0.15
 E00EDEM12EQVI: +1 V00EDEM12Ii +1 V00EDEM12QQ  = 0
 E00EDEM13EPVI: -1 V00EDEM13Ir +1 V00EDEM13PP  = -0.1045
 E00EDEM13EQVI: +1 V00EDEM13Ii +1 V00EDEM13QQ  = 0
 E00EDEM14EPVI: -1 V00EDEM14Ir +1 V00EDEM14PP  = -0.08
 E00EDEM14EQVI: +1 V00EDEM14Ii +1 V00EDEM14QQ  = 0
 E00EDEM15EPVI: -1 V00EDEM15Ir +1 V00EDEM15PP  = -0.26125
 E00EDEM15EQVI: +1 V00EDEM15Ii +1 V00EDEM15QQ  = 0
 E00EDEM16EPVI: -1 V00EDEM16Ir +1 V00EDEM16PP  = -0.16
 E00EDEM16EQVI: +1 V00EDEM16Ii +1 V00EDEM16QQ  = 0
 E00FGEN03EPVI: -1 V00FGEN03Ir +1 V00FGEN03PP  = -0.15
 E00FGEN03EQVI: +1 V00FGEN03Ii +1 V00FGEN03QQ  = -0.100949
 E00FGEN04EPVI: -1 V00FGEN04Ir +1 V00FGEN04PP  = 0
 E00FGEN04EQVI: +1 V00FGEN04Ii +1 V00FGEN04QQ  = -0.0729471
 E00SHT01EPVI: -1 V00SHT01Ir +1 V00SHT01PP  = 0
 E00SHT01EQVI: +1 V00SHT01Ii +1 V00SHT01QQ  = 0
 E00SHT01EPs: -0.0008 V00ENO23Vi +2 V00SHT01Ir  = 0
 E00SHT01EQs: +0.0008 V00ENO23Vr +2 V00SHT01Ii  = 0
 E00EDEM17EPVI: -1 V00EDEM17Ir +1 V00EDEM17PP  = 0
 E00EDEM17EQVI: +1 V00EDEM17Ii +1 V00EDEM17QQ  = 0
 E00EDEM18EPVI: -1 V00EDEM18Ir +1 V00EDEM18PP  = -0.3
 E00EDEM18EQVI: +1 V00EDEM18Ii +1 V00EDEM18QQ  = 0
 E00FGEN05EPVI: -1 V00FGEN05Ir +1 V00FGEN05PP  = -0.2875
 E00FGEN05EQVI: +1 V00FGEN05Ii +1 V00FGEN05QQ  = -0.36004
 E00EDEM19EPVI: -1 V00EDEM19Ir +1 V00EDEM19PP  = 0
 E00EDEM19EQVI: +1 V00EDEM19Ii +1 V00EDEM19QQ  = 0
 E00EDEM20EPVI: -1 V00EDEM20Ir +1 V00EDEM20PP  = -0.3
 E00EDEM20EQVI: +1 V00EDEM20Ii +1 V00EDEM20QQ  = 0
 E00EDEM21EPVI: -1 V00EDEM21Ir +1 V00EDEM21PP  = -0.35
 E00EDEM21EQVI: +1 V00EDEM21Ii +1 V00EDEM21QQ  = 0
 E00LI00DVr: +1 V00ENO00Vr -1 V00ENO01Vr -0.02 V00LI00Ir +0.06 V00LI00Ii  = -0.95
 E00LI00DVi: +1 V00ENO00Vi -1 V00ENO01Vi -0.06 V00LI00Ir -0.02 V00LI00Ii  = 0
 E00LI01DVr: +1 V00ENO00Vr -1 V00ENO02Vr -0.05 V00LI01Ir +0.19 V00LI01Ii  = -0.95
 E00LI01DVi: +1 V00ENO00Vi -1 V00ENO02Vi -0.19 V00LI01Ir -0.05 V00LI01Ii  = 0
 E00LI02DVr: +1 V00ENO01Vr -1 V00ENO03Vr -0.06 V00LI02Ir +0.17 V00LI02Ii  = 0
 E00LI02DVi: +1 V00ENO01Vi -1 V00ENO03Vi -0.17 V00LI02Ir -0.06 V00LI02Ii  = 0
 E00LI03DVr: +1 V00ENO02Vr -1 V00ENO03Vr -0.01 V00LI03Ir +0.04 V00LI03Ii  = 0
 E00LI03DVi: +1 V00ENO02Vi -1 V00ENO03Vi -0.04 V00LI03Ir -0.01 V00LI03Ii  = 0
 E00LI04DVr: +1 V00ENO01Vr -1 V00ENO04Vr -0.05 V00LI04Ir +0.2 V00LI04Ii  = 0
 E00LI04DVi: +1 V00ENO01Vi -1 V00ENO04Vi -0.2 V00LI04Ir -0.05 V00LI04Ii  = 0
 E00LI05DVr: +1 V00ENO01Vr -1 V00ENO05Vr -0.06 V00LI05Ir +0.18 V00LI05Ii  = 0
 E00LI05DVi: +1 V00ENO01Vi -1 V00ENO05Vi -0.18 V00LI05Ir -0.06 V00LI05Ii  = 0
 E00LI06DVr: +1 V00ENO03Vr -1 V00ENO05Vr -0.01 V00LI06Ir +0.04 V00LI06Ii  = 0
 E00LI06DVi: +1 V00ENO03Vi -1 V00ENO05Vi -0.04 V00LI06Ir -0.01 V00LI06Ii  = 0
 E00LI07DVr: +1 V00ENO04Vr -1 V00ENO06Vr -0.05 V00LI07Ir +0.12 V00LI07Ii  = 0
 E00LI07DVi: +1 V00ENO04Vi -1 V00ENO06Vi -0.12 V00LI07Ir -0.05 V00LI07Ii  = 0
 E00LI08DVr: +1 V00ENO05Vr -1 V00ENO06Vr -0.03 V00LI08Ir +0.08 V00LI08Ii  = 0
 E00LI08DVi: +1 V00ENO05Vi -1 V00ENO06Vi -0.08 V00LI08Ir -0.03 V00LI08Ii  = 0
 E00LI09DVr: +1 V00ENO05Vr -1 V00ENO07Vr -0.01 V00LI09Ir +0.04 V00LI09Ii  = 0
 E00LI09DVi: +1 V00ENO05Vi -1 V00ENO07Vi -0.04 V00LI09Ir -0.01 V00LI09Ii  = 0
 E00LI10DVr: +1 V00ENO05Vr -1 V00ENO08Vr +0.21 V00LI10Ii  = 0
 E00LI10DVi: +1 V00ENO05Vi -1 V00ENO08Vi -0.21 V00LI10Ir  = 0
 E00LI11DVr: +1 V00ENO05Vr -1 V00ENO09Vr +0.56 V00LI11Ii  = 0
 E00LI11DVi: +1 V00ENO05Vi -1 V00ENO09Vi -0.56 V00LI11Ir  = 0
 E00LI12DVr: +1 V00ENO08Vr -1 V00ENO10Vr +0.21 V00LI12Ii  = 0
 E00LI12DVi: +1 V00ENO08Vi -1 V00ENO10Vi -0.21 V00LI12Ir  = 0
 E00LI13DVr: +1 V00ENO08Vr -1 V00ENO09Vr +0.11 V00LI13Ii  = 0
 E00LI13DVi: +1 V00ENO08Vi -1 V00ENO09Vi -0.11 V00LI13Ir  = 0
 E00LI14DVr: +1 V00ENO03Vr -1 V00ENO11Vr +0.26 V00LI14Ii  = 0
 E00LI14DVi: +1 V00ENO03Vi -1 V00ENO11Vi -0.26 V00LI14Ir  = 0
 E00LI15DVr: +1 V00ENO11Vr -1 V00ENO12Vr +0.14 V00LI15Ii  = 0
 E00LI15DVi: +1 V00ENO11Vi -1 V00ENO12Vi -0.14 V00LI15Ir  = 0
 E00LI16DVr: +1 V00ENO11Vr -1 V00ENO13Vr -0.12 V00LI16Ir +0.26 V00LI16Ii  = 0
 E00LI16DVi: +1 V00ENO11Vi -1 V00ENO13Vi -0.26 V00LI16Ir -0.12 V00LI16Ii  = 0
 E00LI17DVr: +1 V00ENO11Vr -1 V00ENO14Vr -0.07 V00LI17Ir +0.13 V00LI17Ii  = 0
 E00LI17DVi: +1 V00ENO11Vi -1 V00ENO14Vi -0.13 V00LI17Ir -0.07 V00LI17Ii  = 0
 E00LI18DVr: +1 V00ENO11Vr -1 V00ENO15Vr -0.09 V00LI18Ir +0.2 V00LI18Ii  = 0
 E00LI18DVi: +1 V00ENO11Vi -1 V00ENO15Vi -0.2 V00LI18Ir -0.09 V00LI18Ii  = 0
 E00LI19DVr: +1 V00ENO13Vr -1 V00ENO14Vr -0.22 V00LI19Ir +0.2 V00LI19Ii  = 0
 E00LI19DVi: +1 V00ENO13Vi -1 V00ENO14Vi -0.2 V00LI19Ir -0.22 V00LI19Ii  = 0
 E00LI20DVr: +1 V00ENO15Vr -1 V00ENO16Vr -0.08 V00LI20Ir +0.19 V00LI20Ii  = 0
 E00LI20DVi: +1 V00ENO15Vi -1 V00ENO16Vi -0.19 V00LI20Ir -0.08 V00LI20Ii  = 0
 E00LI21DVr: +1 V00ENO14Vr -1 V00ENO17Vr -0.11 V00LI21Ir +0.22 V00LI21Ii  = 0
 E00LI21DVi: +1 V00ENO14Vi -1 V00ENO17Vi -0.22 V00LI21Ir -0.11 V00LI21Ii  = 0
 E00LI22DVr: +1 V00ENO17Vr -1 V00ENO18Vr -0.06 V00LI22Ir +0.13 V00LI22Ii  = 0
 E00LI22DVi: +1 V00ENO17Vi -1 V00ENO18Vi -0.13 V00LI22Ir -0.06 V00LI22Ii  = 0
 E00LI23DVr: +1 V00ENO18Vr -1 V00ENO19Vr -0.03 V00LI23Ir +0.07 V00LI23Ii  = 0
 E00LI23DVi: +1 V00ENO18Vi -1 V00ENO19Vi -0.07 V00LI23Ir -0.03 V00LI23Ii  = 0
 E00LI24DVr: +1 V00ENO09Vr -1 V00ENO19Vr -0.09 V00LI24Ir +0.21 V00LI24Ii  = 0
 E00LI24DVi: +1 V00ENO09Vi -1 V00ENO19Vi -0.21 V00LI24Ir -0.09 V00LI24Ii  = 0
 E00LI25DVr: +1 V00ENO09Vr -1 V00ENO16Vr -0.03 V00LI25Ir +0.08 V00LI25Ii  = 0
 E00LI25DVi: +1 V00ENO09Vi -1 V00ENO16Vi -0.08 V00LI25Ir -0.03 V00LI25Ii  = 0
 E00LI26DVr: +1 V00ENO09Vr -1 V00ENO20Vr -0.03 V00LI26Ir +0.07 V00LI26Ii  = 0
 E00LI26DVi: +1 V00ENO09Vi -1 V00ENO20Vi -0.07 V00LI26Ir -0.03 V00LI26Ii  = 0
 E00LI27DVr: +1 V00ENO09Vr -1 V00ENO21Vr -0.07 V00LI27Ir +0.15 V00LI27Ii  = 0
 E00LI27DVi: +1 V00ENO09Vi -1 V00ENO21Vi -0.15 V00LI27Ir -0.07 V00LI27Ii  = 0
 E00LI28DVr: +1 V00ENO20Vr -1 V00ENO21Vr -0.01 V00LI28Ir +0.02 V00LI28Ii  = 0
 E00LI28DVi: +1 V00ENO20Vi -1 V00ENO21Vi -0.02 V00LI28Ir -0.01 V00LI28Ii  = 0
 E00LI29DVr: +1 V00ENO14Vr -1 V00ENO22Vr -0.1 V00LI29Ir +0.2 V00LI29Ii  = 0
 E00LI29DVi: +1 V00ENO14Vi -1 V00ENO22Vi -0.2 V00LI29Ir -0.1 V00LI29Ii  = 0
 E00LI30DVr: +1 V00ENO21Vr -1 V00ENO23Vr -0.12 V00LI30Ir +0.18 V00LI30Ii  = 0
 E00LI30DVi: +1 V00ENO21Vi -1 V00ENO23Vi -0.18 V00LI30Ir -0.12 V00LI30Ii  = 0
 E00LI31DVr: +1 V00ENO22Vr -1 V00ENO23Vr -0.13 V00LI31Ir +0.27 V00LI31Ii  = 0
 E00LI31DVi: +1 V00ENO22Vi -1 V00ENO23Vi -0.27 V00LI31Ir -0.13 V00LI31Ii  = 0
 E00LI32DVr: +1 V00ENO23Vr -1 V00ENO24Vr -0.19 V00LI32Ir +0.33 V00LI32Ii  = 0
 E00LI32DVi: +1 V00ENO23Vi -1 V00ENO24Vi -0.33 V00LI32Ir -0.19 V00LI32Ii  = 0
 E00LI33DVr: +1 V00ENO24Vr -1 V00ENO25Vr -0.25 V00LI33Ir +0.38 V00LI33Ii  = 0
 E00LI33DVi: +1 V00ENO24Vi -1 V00ENO25Vi -0.38 V00LI33Ir -0.25 V00LI33Ii  = 0
 E00LI34DVr: +1 V00ENO24Vr -1 V00ENO26Vr -0.11 V00LI34Ir +0.21 V00LI34Ii  = 0
 E00LI34DVi: +1 V00ENO24Vi -1 V00ENO26Vi -0.21 V00LI34Ir -0.11 V00LI34Ii  = 0
 E00LI35DVr: -1 V00ENO26Vr +1 V00ENO27Vr +0.4 V00LI35Ii  = 0
 E00LI35DVi: -1 V00ENO26Vi +1 V00ENO27Vi -0.4 V00LI35Ir  = 0
 E00LI36DVr: +1 V00ENO26Vr -1 V00ENO28Vr -0.22 V00LI36Ir +0.42 V00LI36Ii  = 0
 E00LI36DVi: +1 V00ENO26Vi -1 V00ENO28Vi -0.42 V00LI36Ir -0.22 V00LI36Ii  = 0
 E00LI37DVr: +1 V00ENO26Vr -1 V00ENO29Vr -0.32 V00LI37Ir +0.6 V00LI37Ii  = 0
 E00LI37DVi: +1 V00ENO26Vi -1 V00ENO29Vi -0.6 V00LI37Ir -0.32 V00LI37Ii  = 0
 E00LI38DVr: +1 V00ENO28Vr -1 V00ENO29Vr -0.24 V00LI38Ir +0.45 V00LI38Ii  = 0
 E00LI38DVi: +1 V00ENO28Vi -1 V00ENO29Vi -0.45 V00LI38Ir -0.24 V00LI38Ii  = 0
 E00LI39DVr: +1 V00ENO07Vr -1 V00ENO27Vr -0.06 V00LI39Ir +0.2 V00LI39Ii  = 0
 E00LI39DVi: +1 V00ENO07Vi -1 V00ENO27Vi -0.2 V00LI39Ir -0.06 V00LI39Ii  = 0
 E00LI40DVr: +1 V00ENO05Vr -1 V00ENO27Vr -0.02 V00LI40Ir +0.06 V00LI40Ii  = 0
 E00LI40DVi: +1 V00ENO05Vi -1 V00ENO27Vi -0.06 V00LI40Ir -0.02 V00LI40Ii  = 0
Bounds
 0 <= V00ENO00Vr <= 0.1
 0 <= V00ENO00Vi <= 0
 0 <= V00ENO00Vm <= 0.1
 -1.1 <= V00ENO01Vr <= 1.1
 -1.1 <= V00ENO01Vi <= 1.1
 0 <= V00ENO01Vm <= 0.15
 -1.05 <= V00ENO02Vr <= 1.05
 -1.05 <= V00ENO02Vi <= 1.05
 0 <= V00ENO02Vm <= 0.1
 -1.05 <= V00ENO03Vr <= 1.05
 -1.05 <= V00ENO03Vi <= 1.05
 0 <= V00ENO03Vm <= 0.1
 -1.05 <= V00ENO04Vr <= 1.05
 -1.05 <= V00ENO04Vi <= 1.05
 0 <= V00ENO04Vm <= 0.1
 -1.05 <= V00ENO05Vr <= 1.05
 -1.05 <= V00ENO05Vi <= 1.05
 0 <= V00ENO05Vm <= 0.1
 -1.05 <= V00ENO06Vr <= 1.05
 -1.05 <= V00ENO06Vi <= 1.05
 0 <= V00ENO06Vm <= 0.1
 -1.05 <= V00ENO07Vr <= 1.05
 -1.05 <= V00ENO07Vi <= 1.05
 0 <= V00ENO07Vm <= 0.1
 -1.05 <= V00ENO08Vr <= 1.05
 -1.05 <= V00ENO08Vi <= 1.05
 0 <= V00ENO08Vm <= 0.1
 -1.05 <= V00ENO09Vr <= 1.05
 -1.05 <= V00ENO09Vi <= 1.05
 0 <= V00ENO09Vm <= 0.1
 -1.05 <= V00ENO10Vr <= 1.05
 -1.05 <= V00ENO10Vi <= 1.05
 0 <= V00ENO10Vm <= 0.1
 -1.05 <= V00ENO11Vr <= 1.05
 -1.05 <= V00ENO11Vi <= 1.05
 0 <= V00ENO11Vm <= 0.1
 -1.1 <= V00ENO12Vr <= 1.1
 -1.1 <= V00ENO12Vi <= 1.1
 0 <= V00ENO12Vm <= 0.15
 -1.05 <= V00ENO13Vr <= 1.05
 -1.05 <= V00ENO13Vi <= 1.05
 0 <= V00ENO13Vm <= 0.1
 -1.05 <= V00ENO14Vr <= 1.05
 -1.05 <= V00ENO14Vi <= 1.05
 0 <= V00ENO14Vm <= 0.1
 -1.05 <= V00ENO15Vr <= 1.05
 -1.05 <= V00ENO15Vi <= 1.05
 0 <= V00ENO15Vm <= 0.1
 -1.05 <= V00ENO16Vr <= 1.05
 -1.05 <= V00ENO16Vi <= 1.05
 0 <= V00ENO16Vm <= 0.1
 -1.05 <= V00ENO17Vr <= 1.05
 -1.05 <= V00ENO17Vi <= 1.05
 0 <= V00ENO17Vm <= 0.1
 -1.05 <= V00ENO18Vr <= 1.05
 -1.05 <= V00ENO18Vi <= 1.05
 0 <= V00ENO18Vm <= 0.1
 -1.05 <= V00ENO19Vr <= 1.05
 -1.05 <= V00ENO19Vi <= 1.05
 0 <= V00ENO19Vm <= 0.1
 -1.05 <= V00ENO20Vr <= 1.05
 -1.05 <= V00ENO20Vi <= 1.05
 0 <= V00ENO20Vm <= 0.1
 -1.1 <= V00ENO21Vr <= 1.1
 -1.1 <= V00ENO21Vi <= 1.1
 0 <= V00ENO21Vm <= 0.15
 -1.1 <= V00ENO22Vr <= 1.1
 -1.1 <= V00ENO22Vi <= 1.1
 0 <= V00ENO22Vm <= 0.15
 -1.05 <= V00ENO23Vr <= 1.05
 -1.05 <= V00ENO23Vi <= 1.05
 0 <= V00ENO23Vm <= 0.1
 -1.05 <= V00ENO24Vr <= 1.05
 -1.05 <= V00ENO24Vi <= 1.05
 0 <= V00ENO24Vm <= 0.1
 -1.05 <= V00ENO25Vr <= 1.05
 -1.05 <= V00ENO25Vi <= 1.05
 0 <= V00ENO25Vm <= 0.1
 -1.1 <= V00ENO26Vr <= 1.1
 -1.1 <= V00ENO26Vi <= 1.1
 0 <= V00ENO26Vm <= 0.15
 -1.05 <= V00ENO27Vr <= 1.05
 -1.05 <= V00ENO27Vi <= 1.05
 0 <= V00ENO27Vm <= 0.1
 -1.05 <= V00ENO28Vr <= 1.05
 -1.05 <= V00ENO28Vi <= 1.05
 0 <= V00ENO28Vm <= 0.1
 -1.05 <= V00ENO29Vr <= 1.05
 -1.05 <= V00ENO29Vi <= 1.05
 0 <= V00ENO29Vm <= 0.1
 V00FGEN00Ir free
 V00FGEN00Ii free
 -0.15 <= V00FGEN00PP
 0 <= V00FGEN00PPn2
 0 <= V00FGEN00PPp2
 0 <= V00FGEN00QQ <= 3.8147e-06
 V00FGEN01Ir free
 V00FGEN01Ii free
 -0.25 <= V00FGEN01PP <= 0.75
 0 <= V00FGEN01PPn2
 0 <= V00FGEN01QQ <= 3.8147e-06
 V00EDEM00Ir free
 V00EDEM00Ii free
 -0.05225 <= V00EDEM00PP <= 0
 0.01254 <= V00EDEM00QQ <= 0.01254
 V00EDEM01Ir free
 V00EDEM01Ii free
 0 <= V00EDEM01PP <= 0
 0 <= V00EDEM01QQ <= 0
 V00SHT00Ir free
 V00SHT00Ii free
 V00SHT00PP free
 V00SHT00QQ free
 V00EDEM02Ir free
 V00EDEM02Ii free
 0 <= V00EDEM02PP <= 0
 0 <= V00EDEM02QQ <= 0
 V00EDEM03Ir free
 V00EDEM03Ii free
 -0.1254 <= V00EDEM03PP <= 0
 0.113905 <= V00EDEM03QQ <= 0.113905
 V00EDEM04Ir free
 V00EDEM04Ii free
 -0.26125 <= V00EDEM04PP <= 0
 0.3135 <= V00EDEM04QQ <= 0.3135
 V00EDEM05Ir free
 V00EDEM05Ii free
 0 <= V00EDEM05PP <= 0
 0 <= V00EDEM05QQ <= 0
 V00EDEM06Ir free
 V00EDEM06Ii free
 0 <= V00EDEM06PP <= 0
 0 <= V00EDEM06QQ <= 0
 V00EDEM07Ir free
 V00EDEM07Ii free
 -0.2508 <= V00EDEM07PP <= 0
 0.0182875 <= V00EDEM07QQ <= 0.0182875
 V00EDEM08Ir free
 V00EDEM08Ii free
 0 <= V00EDEM08PP <= 0
 0 <= V00EDEM08QQ <= 0
 V00FGEN02Ir free
 V00FGEN02Ii free
 V00EDEM09Ir free
 V00EDEM09Ii free
 -0.2508 <= V00EDEM09PP <= 0
 0.01672 <= V00EDEM09QQ <= 0.01672
 V00EDEM10Ir free
 V00EDEM10Ii free
 -0.07315 <= V00EDEM10PP <= 0
 0.026125 <= V00EDEM10QQ <= 0.026125
 V00EDEM11Ir free
 V00EDEM11Ii free
 -0.09405 <= V00EDEM11PP <= 0
 0.01881 <= V00EDEM11QQ <= 0.01881
 V00EDEM12Ir free
 V00EDEM12Ii free
 -0.15 <= V00EDEM12PP <= 0
 0 <= V00EDEM12QQ <= 0
 V00EDEM13Ir free
 V00EDEM13Ii free
 -0.1045 <= V00EDEM13PP <= 0
 0.009405 <= V00EDEM13QQ <= 0.009405
 V00EDEM14Ir free
 V00EDEM14Ii free
 -0.08 <= V00EDEM14PP <= 0
 0 <= V00EDEM14QQ <= 0
 V00EDEM15Ir free
 V00EDEM15Ii free
 -0.26125 <= V00EDEM15PP <= 0
 0.007315 <= V00EDEM15QQ <= 0.007315
 V00EDEM16Ir free
 V00EDEM16Ii free
 -0.16 <= V00EDEM16PP <= 0
 0 <= V00EDEM16QQ <= 0
 V00FGEN03Ir free
 V00FGEN03Ii free
 -0.15 <= V00FGEN03PP
 0 <= V00FGEN03PPn2
 0 <= V00FGEN03PPp2
 0 <= V00FGEN03QQ <= 3.8147e-06
 V00FGEN04Ir free
 V00FGEN04Ii free
 0 <= V00FGEN04PP <= 0.6
 0 <= V00FGEN04QQ <= 3.8147e-06
 V00SHT01Ir free
 V00SHT01Ii free
 V00SHT01PP free
 V00SHT01QQ free
 V00EDEM17Ir free
 V00EDEM17Ii free
 0 <= V00EDEM17PP <= 0
 0 <= V00EDEM17QQ <= 0
 V00EDEM18Ir free
 V00EDEM18Ii free
 -0.3 <= V00EDEM18PP <= 0
 0 <= V00EDEM18QQ <= 0
 V00FGEN05Ir free
 V00FGEN05Ii free
 -0.2875 <= V00FGEN05PP <= 0.8625
 0 <= V00FGEN05PPn2
 0 <= V00FGEN05QQ <= 3.8147e-06
 V00EDEM19Ir free
 V00EDEM19Ii free
 0 <= V00EDEM19PP <= 0
 0 <= V00EDEM19QQ <= 0
 V00EDEM20Ir free
 V00EDEM20Ii free
 -0.3 <= V00EDEM20PP <= 0
 0 <= V00EDEM20QQ <= 0
 V00EDEM21Ir free
 V00EDEM21Ii free
 -0.35 <= V00EDEM21PP <= 0
 0 <= V00EDEM21QQ <= 0
 V00LI00Ir free
 V00LI00Ii free
 V00LI01Ir free
 V00LI01Ii free
 V00LI02Ir free
 V00LI02Ii free
 V00LI03Ir free
 V00LI03Ii free
 V00LI04Ir free
 V00LI04Ii free
 V00LI05Ir free
 V00LI05Ii free
 V00LI06Ir free
 V00LI06Ii free
 V00LI07Ir free
 V00LI07Ii free
 V00LI08Ir free
 V00LI08Ii free
 V00LI09Ir free
 V00LI09Ii free
 V00LI10Ir free
 V00LI10Ii free
 V00LI11Ir free
 V00LI11Ii free
 V00LI12Ir free
 V00LI12Ii free
 V00LI13Ir free
 V00LI13Ii free
 V00LI14Ir free
 V00LI14Ii free
 V00LI15Ir free
 V00LI15Ii free
 V00LI16Ir free
 V00LI16Ii free
 V00LI17Ir free
 V00LI17Ii free
 V00LI18Ir free
 V00LI18Ii free
 V00LI19Ir free
 V00LI19Ii free
 V00LI20Ir free
 V00LI20Ii free
 V00LI21Ir free
 V00LI21Ii free
 V00LI22Ir free
 V00LI22Ii free
 V00LI23Ir free
 V00LI23Ii free
 V00LI24Ir free
 V00LI24Ii free
 V00LI25Ir free
 V00LI25Ii free
 V00LI26Ir free
 V00LI26Ii free
 V00LI27Ir free
 V00LI27Ii free
 V00LI28Ir free
 V00LI28Ii free
 V00LI29Ir free
 V00LI29Ii free
 V00LI30Ir free
 V00LI30Ii free
 V00LI31Ir free
 V00LI31Ii free
 V00LI32Ir free
 V00LI32Ii free
 V00LI33Ir free
 V00LI33Ii free
 V00LI34Ir free
 V00LI34Ii free
 V00LI35Ir free
 V00LI35Ii free
 V00LI36Ir free
 V00LI36Ii free
 V00LI37Ir free
 V00LI37Ii free
 V00LI38Ir free
 V00LI38Ii free
 V00LI39Ir free
 V00LI39Ii free
 V00LI40Ir free
 V00LI40Ii free
End
